proyfinal/src/viki/013/experimentInOfficeAgust.take6.output/0bdd5dbc-d254-4c8d-9d44-7da85e9bf3c3.als.dat
{'cnf.clauses': '161767',
 'cnf.totvars': '87638',
 'conflict literals': '416203',
 'conflicts': '9605',
 'decisions': '27866',
 'memused.mb': '23.24',
 'outcome': 'UNSAT',
 'propagations': '12933723',
 'restarts': '41',
 'solver.msecs': 1099,
 'stats_inv': {'cnf.clauses': '118081',
               'cnf.totvars': '69608',
               'conflict literals': '21',
               'conflicts': '10',
               'decisions': '37228',
               'memused.mb': '16.88',
               'outcome': 'SAT',
               'propagations': '77112',
               'restarts': '1',
               'solver.msecs': 38,
               'task.output': "Reading from standard input... Use '--help' for "
                              'help.\n'
                              '============================[ Problem '
                              'Statistics ]=============================\n'
                              '|                                                                             '
                              '|\n'
                              '|  Number of variables:         '
                              '69608                                         '
                              '|\n'
                              '|  Number of clauses:          '
                              '118081                                         '
                              '|\n'
                              '|  Parse time:                   0.03 '
                              's                                       |\n'
                              '|                                                                             '
                              '|\n'
                              '============================[ Search Statistics '
                              ']==============================\n'
                              '| Conflicts |          ORIGINAL         '
                              '|          LEARNT          | Progress |\n'
                              '|           |    Vars  Clauses Literals |    '
                              'Limit  Clauses Lit/Cl |          |\n'
                              '===============================================================================\n'
                              '===============================================================================\n'
                              'restarts              : 1\n'
                              'conflicts             : 10             (263 '
                              '/sec)\n'
                              'decisions             : 37228          (0.00 % '
                              'random) (979323 /sec)\n'
                              'propagations          : 77112          (2028516 '
                              '/sec)\n'
                              'conflict literals     : 21             (0.00 % '
                              'deleted)\n'
                              'Memory used           : 16.88 MB\n'
                              'CPU time              : 0.038014 s\n'
                              '\n'
                              'SATISFIABLE\n'},
 'task.msecs': 1675}
