proyfinal/src/viki/013/experimentInOfficeAgust.take6.output/0bdd5dbc-d254-4c8d-9d44-7da85e9bf3c3.als.out
Reading from standard input... Use '--help' for help.
============================[ Problem Statistics ]=============================
|                                                                             |
|  Number of variables:         87638                                         |
|  Number of clauses:          161767                                         |
|  Parse time:                   0.03 s                                       |
|                                                                             |
============================[ Search Statistics ]==============================
| Conflicts |          ORIGINAL         |          LEARNT          | Progress |
|           |    Vars  Clauses Literals |    Limit  Clauses Lit/Cl |          |
===============================================================================
|       100 |   62360   105040   262562 |    38514      100     11 | 28.844 % |
|       250 |   48481    66583   167840 |    42366      235     59 | 44.680 % |
|       475 |   48481    66583   167840 |    46602      460     80 | 44.680 % |
|       812 |   48375    66240   166998 |    51263      794     77 | 44.801 % |
|      1318 |   48317    65988   166394 |    56389     1298     76 | 44.868 % |
|      2077 |   48031    65021   163984 |    62028     2045     69 | 45.194 % |
|      3216 |   47819    64221   161947 |    68231     3176     59 | 45.436 % |
|      4924 |   47231    61909   156040 |    75054     4851     53 | 46.107 % |
|      7486 |   46579    59327   149937 |    82559     7386     48 | 46.851 % |
===============================================================================
restarts              : 41
conflicts             : 9605           (8737 /sec)
decisions             : 27866          (0.00 % random) (25347 /sec)
propagations          : 12933723       (11764540 /sec)
conflict literals     : 416203         (41.68 % deleted)
Memory used           : 23.24 MB
CPU time              : 1.09938 s

UNSATISFIABLE
